WARNING: for repeatability, setting FPU to use double precision
============================[ Problem Statistics ]=============================
|                                                                             |
|  Number of variables:            50                                         |
|  Number of clauses:             218                                         |
|  Parse time:                   0.00 s                                       |
|                                                                             |
============================[ Search Statistics ]==============================
| Conflicts |          ORIGINAL         |          LEARNT          | Progress |
|           |    Vars  Clauses Literals |    Limit  Clauses Lit/Cl |          |
===============================================================================
===============================================================================
restarts              : 1
conflicts             : 71             (47619 /sec)
decisions             : 76             (0.00 % random) (50973 /sec)
propagations          : 1079           (723675 /sec)
conflict literals     : 287            (17.53 % deleted)
Memory used           : 20.00 MB
CPU time              : 0.001491 s

UNSATISFIABLE
